1 1 0 0 0 0 0
2 1 6 9 0 0 0
3 1 4 0 0 4 0
4 1 2 2 0 0 0
5 1 2 0 0 6 0
6 1 3 1 0 0 0
7 1 10 6 0 0 0
8 1 2 0 6 0 0
9 1 7 0 7 0 0
10 1 4 10 0 0 0
11 1 6 3 0 0 0
12 1 4 0 0 9 0
13 1 7 0 1 0 0
14 1 4 0 0 0 4
15 1 10 0 0 0 1
16 1 9 0 0 0 5
17 1 1 0 0 5 0
18 1 9 0 0 10 0
19 1 10 0 8 0 0
20 1 5 0 0 0 6
21 1 9 5 0 0 0
22 1 8 7 0 0 0
23 1 3 9 0 0 0
24 1 3 9 0 0 0
25 1 7 10 0 0 0
26 1 8 0 0 6 0
27 1 10 0 0 9 0
28 1 9 4 0 0 0
29 1 5 0 5 0 0
30 1 2 0 2 0 0
31 1 10 0 0 0 1
32 1 6 0 0 3 0
33 1 9 0 0 3 0
34 1 10 0 0 0 4
35 1 6 0 0 9 0
36 1 9 0 5 0 0
37 1 10 8 0 0 0
38 1 9 0 0 0 4
39 1 2 0 0 0 6
40 1 8 4 0 0 0
41 1 2 0 0 0 1
42 1 2 9 0 0 0
43 1 2 0 0 0 2
44 1 8 0 7 0 0
45 1 2 3 0 0 0
46 1 2 0 6 0 0
47 1 1 0 0 6 0
48 1 2 0 0 0 7
49 1 7 0 0 0 3
50 1 5 9 0 0 0
51 1 7 0 0 0 3
52 1 2 0 0 3 0
53 1 9 3 0 0 0
54 1 9 0 0 0 1
55 1 1 0 0 7 0
56 1 10 0 6 0 0
57 1 10 0 0 2 0
58 1 8 0 3 0 0
59 1 9 4 0 0 0
60 1 3 0 8 0 0
61 1 4 0 0 0 4
62 1 2 0 0 0 5
63 1 7 0 4 0 0
64 1 10 0 0 9 0
65 1 2 4 0 0 0
66 1 5 4 0 0 0
67 1 5 2 0 0 0
68 1 3 0 3 0 0
69 1 2 0 0 10 0
70 1 6 0 0 0 5
71 1 3 0 6 0 0
72 1 7 5 0 0 0
73 1 6 2 0 0 0
74 1 1 2 0 0 0
75 1 7 5 0 0 0
76 1 5 0 0 0 6 
77 1 4 0 6 0 0
78 1 5 0 0 2 0
79 1 6 0 0 0 7
80 1 10 0 4 0 0
81 1 1 7 0 0 0
82 1 9 0 0 4 0
83 1 1 0 0 0 5
84 1 8 0 10 0 0
85 1 6 0 0 0 5
86 1 9 3 0 0 0
87 1 2 3 0 0 0
88 1 7 0 0 10 0 
89 1 3 0 0 8 0
90 1 7 9 0 0 0
91 1 10 0 0 0 5
92 1 1 0 0 0 4
93 1 5 8 0 0 0
94 1 5 4 0 0 0
95 1 3 0 0 0 2
96 1 1 0 0 9 0
97 1 3 0 9 0 0
98 1 5 4 0 0 0
99 1 5 0 6 0 0
100 1 10 0 0 0 6
101 1 6 0 0 0 1
102 1 5 0 0 0 7
103 1 8 9 0 0 0
104 1 10 5 0 0 0
105 1 10 0 3 0 0
106 1 6 6 0 0 0
107 1 2 0 0 10 0
108 1 2 3 0 0 0
109 1 2 3 0 0 0
110 1 10 7 0 0 0
111 1 1 8 0 0 0
112 1 3 0 0 8 0
113 1 4 0 0 0 6
114 1 5 3 0 0 0
115 1 9 5 0 0 0
116 1 3 0 4 0 0
117 1 1 0 0 4 0
118 1 10 0 9 0 0
119 1 3 0 0 0 7
120 1 8 0 7 0 0
121 1 9 6 0 0 0
122 1 0 0 0 0 0
